multiobj/instances/reallike/Ter-rl-6-2-0.80-1.0-3.in
6 2
0 59 64 103 62 95 
59 0 70 49 40 62 
64 70 0 118 33 51 
103 49 118 0 85 94 
62 40 33 85 0 33 
95 62 51 94 33 0 
0 43 0 0 35898 28 
43 0 0 71328 0 2 
0 0 0 0 0 0 
0 71328 0 0 16814 0 
35898 0 0 16814 0 0 
28 2 0 0 0 0 
0 21 0 0 7074 1 
21 0 0 5216 0 10 
0 0 0 0 0 0 
0 5216 0 0 3940 0 
7074 0 0 3940 0 1 
1 10 0 0 1 0 
