multiobj/solutions/reallike/Ter-rl-6-2-0.80-1.0-3.out
4 2
3 5 2 4 1 0 
9585004 1358880 
3 5 0 4 1 2 
9585668 1358052 
5 3 0 1 4 2 
10715944 1299728 
5 3 2 1 4 0 
10718348 1299574 
